30
3
20325
429 90 114
false
0.25
33 20 2 50 27 9 22 9 4 23 42 38 18 24 20 7 9 15 23 12 43 13 25 12 29 27 33 8 25 25
42 3 25 39 50 13 34 28 8 36 25 4 7 8 1 22 35 7 40 12 20 39 21 30 20 13 19 11 45 4
49 12 50 17 11 11 39 1 32 24 41 8 36 35 45 25 34 21 32 13 32 20 27 36 23 15 25 3 20 46
100 52 53 88 30 85 86 100 87 97 81 45 23 73 60 46 18 67 92 22 47 12 20 13 39 55 26 87 36 95
0 77 37 0 36 0 0 0 35 0 0 0 0 93 75 0 0 0 0 0 13 7 0 0 0 0 0 0 0 0
0 0 0 0 0 0 0 0 0 0 34 51 0 0 0 0 0 0 0 0 0 0 0 0 6 66 0 0 91
0 0 0 0 0 0 0 0 0 0 5 0 1 66 71 0 0 0 35 0 0 0 0 57 0 0 0 0
0 79 0 3 43 11 68 0 0 0 68 0 73 0 0 95 0 0 0 94 17 0 0 64 0 0 37
0 100 71 0 0 0 0 0 0 0 0 32 27 36 0 76 88 0 0 0 39 0 0 0 56 19
0 0 10 0 0 0 83 0 0 22 0 0 0 0 0 0 0 0 71 0 0 74 0 0 0
0 16 58 0 0 67 0 0 0 75 0 0 0 47 21 0 0 0 0 74 0 40 0 0
0 0 0 0 26 66 46 0 0 0 0 0 0 0 14 0 0 0 0 0 60 0 0
0 0 77 0 59 0 0 78 57 0 0 79 0 0 0 0 26 68 0 0 0 0
0 0 0 14 34 0 0 0 9 66 0 39 0 81 0 49 94 0 79 0 0
0 0 19 17 0 0 0 0 0 0 0 0 0 0 23 0 2 0 0 0
0 72 44 0 0 0 0 0 10 52 0 0 0 95 94 0 0 0 0
0 46 0 0 0 86 50 0 0 0 0 0 0 0 0 0 0 0
0 0 90 35 11 40 0 0 0 0 0 0 0 0 0 0 0
0 0 0 0 0 0 0 31 0 9 45 0 15 0 29 63
0 52 37 0 0 0 0 0 0 16 0 0 0 0 0
0 55 15 0 0 0 0 0 0 0 85 0 0 7
0 0 0 0 0 45 0 0 0 0 0 0 0
0 0 0 0 0 0 0 0 0 4 0 0
0 0 0 0 0 0 0 70 0 0 11
0 0 0 0 99 0 0 0 33 0
0 0 80 0 0 0 0 22 0
0 0 0 0 35 0 0 35
0 30 0 52 0 0 52
0 70 28 0 0 0
0 13 0 79 0
0 28 0 0
0 82 0
0 0
0 0 96 0 85 0 0 0 88 17 0 0 0 0 0 0 0 0 0 0 0 65 0 0 43 0 0 0 0
0 55 0 80 78 56 0 76 27 0 0 0 0 0 0 40 0 11 0 0 0 0 0 66 48 96 0 0
0 0 0 0 65 63 0 17 0 0 97 63 96 18 0 0 57 0 22 0 0 0 46 0 0 0 0
0 0 0 0 0 0 0 0 35 99 0 0 0 0 0 0 0 0 78 0 0 14 84 0 0 0
0 0 0 30 0 85 63 0 0 0 0 0 11 0 0 0 0 0 31 0 0 0 0 0 0
0 0 0 0 0 0 21 81 0 0 0 0 0 0 0 10 0 0 67 0 0 24 0 0
0 0 0 0 0 0 0 0 0 0 0 0 0 0 0 0 96 65 0 0 0 0 0
0 0 0 0 0 0 57 0 0 0 0 0 0 0 0 0 5 0 0 28 0 0
0 0 0 0 0 0 0 0 0 77 0 0 0 0 0 0 0 0 0 0 0
0 0 0 0 0 0 0 0 0 0 0 0 60 0 0 59 0 45 0 0
0 9 0 0 0 0 0 70 0 0 0 66 0 0 0 0 0 0 0
0 0 77 0 0 0 88 0 0 0 10 52 0 0 0 0 9 0
0 70 0 0 0 0 97 0 0 66 39 0 72 91 55 0 0
0 0 0 0 0 0 58 0 0 0 0 0 0 93 73 0
0 0 0 44 36 0 0 0 0 0 0 0 0 0 24
0 78 0 0 0 0 0 5 0 0 0 0 0 40
0 0 0 0 0 95 0 76 0 0 0 4 0
0 0 0 0 0 0 0 0 15 0 28 21
0 0 53 0 0 0 0 0 0 54 28
0 0 0 0 22 0 0 0 78 0
0 0 0 0 0 0 41 0 89
0 0 0 0 59 97 35 0
0 0 0 0 0 0 40
0 86 7 0 0 69
0 0 0 0 81
0 37 0 0
0 0 7
0 0
0
0 0 27 0 0 0 0 0 0 0 0 0 0 0 69 0 0 0 0 0 0 0 0 0 68 0 3 26
0 0 0 62 15 0 0 0 0 95 0 0 0 0 0 0 98 0 0 0 0 0 15 0 0 0 0
0 69 0 40 0 59 0 0 0 0 0 0 0 0 0 0 73 90 17 0 79 2 0 0 9 37
0 0 0 0 0 48 71 0 0 48 0 0 0 0 0 0 55 0 86 0 0 0 91 71 0
0 0 0 0 0 0 99 0 0 0 0 73 0 0 34 34 0 0 47 0 0 0 0 0
0 0 0 0 0 0 66 0 0 0 38 0 42 13 0 0 88 0 0 0 54 0 91
0 0 0 0 0 78 0 0 0 0 0 0 0 0 88 0 0 0 0 0 0 0
0 36 74 0 0 0 0 0 0 0 0 0 38 0 0 100 0 0 0 0 0
0 92 8 0 0 0 0 0 0 0 0 39 0 0 99 49 77 0 0 0
0 0 25 0 0 100 0 0 0 0 23 0 0 0 0 0 64 0 0
0 0 0 0 24 1 81 0 0 0 0 55 12 32 0 0 0 0
0 0 0 0 0 0 0 62 0 0 0 0 75 67 49 0 0
0 10 7 66 0 0 0 0 19 61 78 0 0 72 0 0
0 82 29 0 0 27 0 0 49 50 0 0 0 0 54
0 1 0 0 0 91 0 0 0 0 80 0 0 0
0 0 0 0 0 0 0 0 0 0 0 44 0
0 0 21 0 96 0 0 0 49 0 75 0
0 0 43 0 0 0 92 0 0 0 0
0 0 0 0 47 0 0 0 50 0
0 48 0 0 80 0 0 0 0
0 0 0 0 0 0 0 74
0 0 0 0 56 0 11
0 0 0 0 0 0
0 21 0 67 48
0 0 0 0
0 0 0
0 0
0
0 0 11 0 14 3 0 0 0 0 0 28 94 0 0 0 0 0 0 0 82 0 58 64 100 0 0
0 55 52 0 0 0 0 0 0 0 0 0 0 0 0 0 0 84 40 0 81 0 23 0 25 0
0 0 0 0 0 0 0 0 0 44 60 0 0 0 11 0 0 0 0 0 0 0 0 0 0
0 0 10 22 0 0 55 0 0 0 21 11 0 5 0 0 0 0 0 11 45 0 84 0
0 0 0 0 0 0 64 0 6 0 0 0 0 0 0 91 0 83 0 0 0 54 0
0 0 0 0 0 0 67 0 0 0 0 64 22 21 0 0 25 0 0 0 0 0
0 0 0 42 70 0 0 23 0 0 0 0 0 0 0 0 0 0 0 0 0
0 0 0 0 0 69 37 0 0 0 0 0 0 0 33 0 0 40 0 0
0 87 0 0 0 0 0 0 0 0 0 0 60 62 0 0 0 0 0
0 0 0 0 0 0 56 76 0 0 0 0 0 0 0 0 0 0
0 0 0 0 16 0 0 0 70 0 0 0 0 0 0 0 0
0 0 0 16 0 0 0 52 0 0 0 0 0 0 0 0
0 0 0 0 0 0 38 0 86 0 0 0 0 0 0
0 0 39 0 75 0 0 0 0 0 0 0 0 0
0 0 0 0 47 0 6 0 0 0 0 0 0
0 0 0 0 0 76 0 0 0 37 0 41
0 0 74 0 0 0 0 0 0 20 0
0 0 0 9 0 8 0 0 0 0
0 0 83 0 0 0 72 37 0
0 0 0 0 0 0 30 0
0 0 0 41 0 0 0
0 0 0 0 40 0
0 0 0 0 57
0 0 72 0
0 24 0
0 0
0
0 0 45 0 0 0 38 0 48 99 0 0 0 0 83 0 0 0 0 0 0 0 0 0 0 0
0 63 46 16 23 0 0 0 0 0 0 46 0 0 0 51 0 66 81 0 0 0 0 0 49
0 0 19 0 0 61 0 0 0 0 0 0 29 0 19 0 0 0 88 0 0 0 14 0
0 14 62 0 31 0 0 0 0 77 0 73 0 46 56 41 65 0 0 82 66 0 0
0 0 0 0 0 0 0 0 0 0 0 0 20 0 0 0 0 0 0 84 0 0
0 0 0 5 0 0 0 0 0 0 0 0 0 6 0 0 10 18 0 0 0
0 28 65 0 0 0 81 0 0 42 74 96 0 0 18 0 0 0 0 0
0 0 0 0 0 0 0 0 94 0 18 0 0 0 33 0 0 0 0
0 22 0 0 0 0 0 0 0 19 0 0 16 0 0 0 40 0
0 84 0 0 0 0 0 0 0 0 0 0 96 0 0 0 0
0 0 0 0 0 0 0 0 0 55 91 44 71 0 0 82
0 0 0 0 0 0 0 0 51 0 94 64 0 0 74
0 0 0 0 1 60 59 46 0 7 0 0 0 0
0 0 0 41 0 0 0 15 0 0 0 0 44
0 0 0 0 46 97 0 0 0 0 66 81
0 0 0 0 0 75 1 0 0 0 0
0 0 0 0 0 92 0 0 25 0
0 0 20 0 13 0 0 0 0
0 0 0 100 0 0 0 92
0 49 0 0 0 0 0
0 0 0 0 97 0
0 0 40 0 0
0 0 0 0
0 0 0
0 16
0
0 0 0 51 0 77 0 38 0 0 0 59 0 0 0 0 0 0 0 70 52 0 0 0 0
0 0 0 87 86 0 0 0 0 0 66 0 48 0 0 0 0 0 53 0 0 0 0 0
0 8 0 0 0 0 0 37 0 43 0 20 0 0 0 0 53 2 0 27 0 0 0
0 0 0 0 0 0 0 0 0 0 0 11 0 0 0 0 0 0 0 80 0 0
0 0 0 0 0 0 0 0 0 0 0 0 0 42 0 0 0 44 53 0 9
0 0 64 0 0 0 0 89 98 0 0 0 0 0 0 87 0 0 0 0
0 0 0 7 20 0 67 0 0 0 17 0 0 47 0 40 0 0 90
0 73 84 0 0 0 0 0 0 0 0 0 0 0 56 0 0 0
0 0 0 90 0 22 0 0 0 0 24 0 0 0 0 0 0
0 0 0 41 0 0 0 0 44 27 0 0 94 54 0 100
0 0 0 0 0 87 57 0 67 77 75 0 17 0 0
0 0 0 0 0 0 0 0 0 0 0 0 13 0
0 0 53 0 0 0 0 0 0 61 0 21 31
0 59 9 70 0 0 0 0 0 0 0 0
0 0 61 0 50 0 83 0 67 27 98
0 0 95 19 0 74 36 0 0 0
0 0 59 66 0 89 0 0 0
0 0 46 92 26 0 0 0
0 0 48 0 0 0 0
0 0 0 0 44 0
0 0 76 0 0
0 0 46 0
0 75 65
0 55
0
0 0 2 0 0 0 0 85 45 0 0 0 0 0 0 95 0 48 0 0 0 92 0 0
0 0 0 0 0 21 0 0 0 0 0 0 97 0 0 0 4 0 73 0 0 0 4
0 85 52 0 72 0 0 0 0 19 0 0 2 0 0 0 0 0 0 13 0 0
0 0 0 0 69 0 0 0 0 0 60 0 70 0 0 56 0 0 11 0 0
0 0 0 13 11 0 0 0 0 90 0 0 92 0 0 0 77 0 0 0
0 0 58 0 0 0 0 0 0 18 0 49 0 0 0 0 0 0 0
0 0 0 0 19 96 0 0 0 0 0 0 0 0 0 0 0 0
0 0 9 0 0 0 0 0 0 0 0 0 78 55 0 0 0
0 0 0 0 0 0 0 70 0 0 0 56 0 0 61 0
0 0 14 0 0 0 0 0 0 0 0 0 0 0 0
0 0 0 0 76 1 0 0 0 24 66 0 0 0
0 0 0 0 76 0 0 79 0 0 0 0 0
0 0 0 0 0 0 0 0 0 0 0 0
0 0 0 0 0 64 0 0 0 12 0
0 0 0 0 0 32 0 81 0 63
0 73 0 0 0 0 0 0 0
0 0 0 0 0 0 78 0
0 0 95 0 79 0 0
0 0 18 69 29 0
0 0 0 0 88
0 30 0 41
0 0 0
0 22
0
0 0 52 57 0 0 99 0 0 0 0 0 0 80 0 0 0 0 0 0 0 0 0
0 0 57 0 86 0 0 46 0 0 0 80 94 0 1 0 0 36 0 0 0 0
0 34 0 0 83 0 77 0 27 89 0 0 0 0 0 0 0 0 0 70 0
0 0 0 0 0 33 0 0 0 0 0 0 0 36 57 0 37 0 0 0
0 0 0 100 0 0 0 0 78 0 0 0 0 0 0 0 0 0 65
0 0 0 0 37 0 36 0 64 0 0 0 0 0 71 0 0 0
0 0 0 11 0 0 88 0 0 0 0 91 0 17 32 16 0
0 0 0 0 84 43 0 0 0 15 55 0 21 0 0 44
0 0 0 0 0 0 53 0 22 22 0 0 0 0 0
0 0 0 32 0 0 0 0 74 0 0 0 0 68
0 89 0 0 0 0 13 0 0 3 0 0 0
0 0 44 0 91 0 0 0 17 0 0 0
0 44 0 0 0 0 0 0 0 0 0
0 0 0 0 0 0 8 0 0 0
0 20 11 7 0 91 0 0 0
0 0 0 0 0 0 60 0
0 80 0 17 66 52 0
0 0 0 0 0 0
0 0 0 94 0
0 0 0 0
0 0 0
0 46
0
0 66 0 0 16 0 0 0 0 0 100 0 91 0 60 0 38 0 0 0 0 0
0 0 70 0 68 81 0 0 81 0 78 57 0 0 0 0 68 46 5 0 0
0 30 0 0 0 0 0 22 89 0 34 58 41 32 25 0 0 0 94 0
0 28 0 0 0 0 0 0 0 0 95 0 4 20 98 0 0 33 0
0 0 0 0 17 0 0 0 0 38 0 0 0 0 0 0 0 0
0 44 0 77 0 0 0 0 0 32 0 0 0 0 0 0 0
0 0 0 0 18 76 0 0 98 0 0 0 0 0 0 3
0 0 64 0 0 0 0 0 0 16 87 0 0 0 0
0 0 0 71 86 0 0 0 68 12 0 0 57 78
0 0 0 91 0 0 0 0 0 0 0 21 19
0 0 0 0 0 0 90 0 0 0 0 0
0 0 0 0 42 0 34 0 0 0 0
0 0 66 0 4 0 0 61 83 0
0 95 0 58 0 3 0 0 0
0 74 0 0 0 0 67 0
0 0 0 53 0 0 0
0 0 0 82 0 42
0 99 0 0 0
0 0 0 0
0 0 80
0 0
0
0 0 0 0 0 0 0 0 24 0 0 35 0 0 0 6 0 0 8 0 0
0 73 23 0 0 15 0 72 6 0 0 96 90 88 71 32 92 0 0 0
0 0 0 0 0 1 0 0 0 90 0 0 0 0 0 0 0 0 0
0 12 0 87 0 0 0 66 0 0 10 0 0 0 0 0 0 0
0 80 40 0 0 0 0 36 0 0 0 40 0 0 0 0 3
0 0 0 0 0 0 62 0 76 0 70 0 83 31 0 0
0 0 0 0 0 0 0 0 0 23 0 0 0 9 98
0 53 92 87 0 97 0 0 85 0 0 0 0 25
0 3 0 0 0 0 9 0 6 0 59 7 0
0 0 97 0 0 0 0 0 0 0 0 0
0 0 18 87 52 0 12 0 0 0 79
0 0 0 11 0 19 0 0 0 0
0 0 31 0 0 0 0 0 52
0 0 0 100 0 0 0 0
0 0 80 26 0 0 31
0 0 72 80 0 32
0 0 0 41 0
0 0 22 0
0 0 49
0 0
0
0 64 94 0 0 0 34 0 0 0 0 0 0 0 15 0 20 0 63 0
0 0 0 0 0 0 97 0 4 0 91 0 0 0 0 6 0 0 0
0 0 0 0 97 38 0 76 0 0 97 0 91 0 0 98 0 67
0 0 0 0 47 86 55 0 0 0 0 45 0 29 52 0 0
0 0 0 0 0 0 94 19 41 0 0 0 0 0 0 0
0 0 0 0 3 18 16 0 80 0 0 0 0 46 0
0 58 0 0 0 0 0 0 23 0 0 0 0 0
0 0 0 0 0 0 0 0 0 0 50 0 44
0 0 0 0 0 0 0 0 52 25 0 4
0 0 0 31 0 0 0 49 25 67 0
0 37 51 0 5 0 0 0 44 0
0 0 0 0 87 65 0 0 94
0 0 0 21 0 0 81 41
0 84 0 0 0 60 79
0 0 0 0 0 0
0 0 0 0 0
0 0 0 0
0 71 18
0 3
0
0 0 79 0 0 0 0 0 41 0 0 0 0 0 0 0 0 6 36
0 62 43 0 0 0 0 0 81 0 0 0 0 10 0 0 0 37
0 0 0 0 0 0 0 3 52 0 0 0 94 0 62 0 0
0 38 98 0 46 0 0 0 0 93 91 0 0 0 60 86
0 0 0 0 0 0 0 0 0 13 0 13 41 0 0
0 0 4 64 0 11 0 0 0 0 64 0 0 0
0 70 0 0 0 38 0 0 0 0 0 0 0
0 0 0 49 0 0 0 0 40 0 0 0
0 0 0 76 0 0 5 0 0 0 0
0 0 0 0 39 58 0 0 18 0
0 0 0 0 0 0 0 0 0
0 0 0 17 0 0 0 0
0 91 2 18 0 0 0
0 0 0 0 16 0
0 0 0 0 0
0 0 0 0
0 0 0
0 0
0
0 0 0 0 0 0 0 0 0 0 0 69 0 0 0 0 0 13
0 0 0 56 0 0 56 56 97 86 0 16 86 0 0 0 0
0 55 0 0 22 0 96 0 0 0 0 19 0 0 0 0
0 0 0 0 0 0 0 0 0 0 0 21 0 5 0
0 0 0 0 0 37 0 0 0 0 0 0 0 52
0 0 0 0 43 0 98 86 0 33 0 0 6
0 13 77 0 0 0 50 0 0 0 0 0
0 0 0 27 0 0 0 0 0 0 0
0 0 0 0 59 57 0 0 0 31
0 0 51 0 9 0 0 0 0
0 0 81 81 0 0 0 0
0 0 0 0 0 59 0
0 0 0 31 0 63
0 83 6 0 0
0 25 76 0
0 0 0
0 0
0
0 65 0 90 15 89 0 18 52 16 0 0 0 0 27 0 20
0 0 0 100 0 0 28 0 0 0 28 0 0 0 0 0
0 0 0 0 0 0 0 0 0 0 39 37 0 0 0
0 0 0 0 0 0 0 0 0 0 0 82 0 0
0 0 0 0 0 67 0 0 0 0 66 0 0
0 0 0 48 0 0 0 0 0 0 98 0
0 0 0 0 0 0 0 54 57 0 0
0 36 0 24 0 17 0 89 0 0
0 0 0 72 0 63 0 9 49
0 0 84 63 0 0 0 0
0 0 0 27 0 0 0
0 0 86 0 0 0
0 0 0 18 0
0 45 16 3
0 80 57
0 27
0
0 90 0 0 0 64 82 0 0 69 0 0 0 0 4 0
0 89 0 0 0 0 0 0 0 0 0 85 0 0 0
0 0 0 0 0 95 0 33 0 0 0 0 0 0
0 0 80 0 0 0 0 0 0 0 0 0 0
0 0 15 0 0 0 0 0 0 0 25 83
0 86 0 0 0 26 0 0 0 0 0
0 0 8 0 0 1 0 0 21 25
0 0 32 0 0 0 20 0 66
0 0 0 0 0 55 0 5
0 0 55 0 0 0 0
0 0 0 0 0 0
0 0 0 0 0
0 0 74 0
0 0 0
0 0
0
0 63 0 62 0 0 0 0 0 0 0 0 5 90 15
0 0 0 0 0 0 0 0 0 0 0 0 0 0
0 0 0 0 0 0 0 0 0 25 0 0 0
0 0 0 0 0 0 0 89 0 0 0 69
0 0 0 0 0 0 42 0 0 0 47
0 0 0 0 0 0 62 0 0 0
0 31 59 0 0 0 39 0 8
0 0 0 21 0 0 0 0
0 0 16 0 0 0 63
0 71 87 0 52 18
0 0 2 0 0
0 68 0 0
0 0 32
0 0
0
0 0 0 0 81 0 62 0 46 0 11 77 0 0
0 43 0 0 46 0 22 98 0 5 0 85 0
0 0 0 47 0 42 0 1 56 67 93 98
0 59 0 0 0 94 0 0 80 0 57
0 0 0 0 85 0 96 65 0 0
0 21 0 0 0 57 0 46 0
0 0 0 0 58 0 0 71
0 0 0 0 0 46 0
0 25 0 0 0 0
0 0 0 0 0
0 0 0 0
0 0 79
0 0
0
0 0 0 30 0 0 0 62 11 0 31 0 0
0 54 0 0 37 0 0 0 0 0 0 0
0 11 0 18 30 0 0 80 0 0 0
0 0 0 0 0 0 0 0 0 0
0 0 12 6 0 0 0 0 0
0 0 0 0 0 91 0 88
0 0 0 0 0 0 0
0 0 0 23 37 12
0 0 0 5 0
0 89 0 0
0 37 0
0 0
0
0 44 0 41 0 0 90 0 0 0 0 0
0 77 0 0 0 0 0 0 80 0 0
0 81 0 0 0 0 45 0 30 0
0 0 0 0 37 0 0 86 99
0 75 0 0 47 0 0 0
0 0 0 0 0 0 40
0 0 0 0 0 0
0 0 0 29 0
0 34 0 0
0 24 0
0 0
0
0 0 35 0 0 0 0 0 0 0 0
0 49 18 0 62 10 0 0 0 47
0 0 0 0 0 41 0 0 0
0 57 42 0 22 0 0 0
0 0 87 60 0 0 0
0 61 19 97 0 0
0 0 0 0 0
0 0 0 0
0 0 35
0 0
0
0 0 0 0 0 32 0 0 0 18
0 0 0 0 0 0 0 0 96
0 50 75 0 0 0 0 0
0 0 0 0 0 0 0
0 0 0 26 0 0
0 0 0 56 0
0 0 0 52
0 0 0
0 0
0
0 0 0 0 20 0 0 0 0
0 0 0 0 0 0 0 0
0 65 0 0 0 30 0
0 0 0 0 60 0
0 15 0 73 0
0 0 0 0
0 0 53
0 0
0
0 0 0 0 97 0 0 6
0 0 57 0 47 69 0
0 0 0 0 0 0
0 0 84 1 42
0 50 0 65
0 0 0
0 0
0
0 0 47 13 27 0 0
0 0 0 0 0 0
0 0 0 42 32
0 0 0 0
0 0 0
0 0
0
0 0 0 59 0 2
0 0 24 0 0
0 8 0 0
0 90 0
0 0
0
0 18 0 0 0
0 0 0 0
0 0 0
0 0
0
0 93 0 41
0 0 0
0 92
0
0 0 16
0 0
0
0 48
0
0
5713 6019 4662 6549 6719 5475 5872 6492 5677 6122 5983 5362 5778 6551 6218 5660 5265 4861 5593 5459 5792 6184 5774 5539 6856 6177 5839 5929 5104 5616
141.91228612657184 936.2888888888889 870.2399999999999 228.04612368024132 331.35001122334455 509.07148407148406 196.72635860871154 2481.7301587301586 768.7604166666666 230.4376006441224 175.89973674022454 717.2850877192983 435.64285714285717 426.3349206349206 2222.359259259259 430.748051948052 296.7605042016807 416.65714285714284 185.92672101449276 443.2521367521367 201.76589147286822 314.48547008547007 239.92141093474427 266.6925925925926 292.4335832083958 371.9105413105413 239.27172780435936 1085.486111111111 190.92740740740737 583.575652173913
